Route #1: 67 7 46 34 52 27 29 45 4 75
Route #2: 68 2 30 48 74 28 61 22 62 73 33 6
Route #3: 5 47 21 69 36 71 60 70 20 37 15 57 13 54 19
Route #4: 8 35 53 14 59 11 66 65 38
Route #5: 9 39 72 58 10 31 25 55 18 50 32 44
Route #6: 3 24 49 23 56 41 64 42 43 1 63 16 51
Route #7: 17 40 12 26
Cost 719